32	0

0	1	2
3	1	3
10	1	4
4	1	5
5	2	6	7
1	1	8
5	1	8
5	1	9
3	1	10
2	1	11
10	1	12
8	1	13
9	1	14
7	1	15
3	1	16
7	1	17
7	2	18	19
6	1	20
5	1	20
6	1	21
9	1	22
9	1	23
5	1	24
7	2	25	27
3	1	26
2	1	28
7	1	28
6	2	29	30
9	1	31
9	1	31
7	1	32
0	0
